(set-logic HORN)
; KVARS

(declare-fun k_98 (Int Int Int Int Int Int Int Int Int Int Int Int Int Int Int Int) Bool)

(declare-fun k_89 (Int Int Int Int Int Int Int Int Int Int) Bool)

(declare-fun k_83 (Int Int Int Int Int Int Int Int Int) Bool)

(declare-fun k_81 (Int Int Int Int Int Int Int Int) Bool)

(declare-fun k_79 (Int Int Int Int Int Int Int Int) Bool)

(declare-fun k_77 (Int Int Int Int Int Int Int Int Int) Bool)

(declare-fun k_75 (Int Int Int Int Int Int Int Int) Bool)

(declare-fun k_71 (Int Int Int Int Int Int Int Int Int) Bool)

(declare-fun k_69 (Int Int Int Int Int Int Int Int) Bool)

(declare-fun k_65 (Int Int Int Int Int Int Int) Bool)

(declare-fun k_62 (Int Int Int Int Int Int) Bool)

(declare-fun k_59 (Int Int Int Int Int Int Int Int Int) Bool)

(declare-fun k_57 (Int Int Int Int Int Int Int Int) Bool)

(declare-fun k_54 (Int Int Int Int Int Int Int Int Int) Bool)

(declare-fun k_52 (Int Int Int Int Int Int Int Int) Bool)

(declare-fun k_49 (Int Int Int Int Int Int Int) Bool)

(declare-fun k_47 (Int Int Int Int Int Int) Bool)

(declare-fun k_120 (Int Int Int Int Int Int Int Int) Bool)

(declare-fun k_118 (Int Int Int Int Int Int Int) Bool)

(declare-fun k_114 (Int Int Int Int Int Int Int Int) Bool)

(declare-fun k_112 (Int Int Int Int Int Int Int) Bool)

(declare-fun k_108 (Int Int Int Int Int Int) Bool)

(declare-fun k_102 (Int Int Int Int Int Int Int Int Int Int Int Int Int Int Int Int Int) Bool)

(declare-fun k_100 (Int Int Int Int Int Int Int Int Int Int Int Int Int Int Int Int) Bool)

; CONSTRAINTS

; cid = 34
(assert (forall ((EQ_6U Int) 
(False_68 Int) (GT_6W Int) (LT_6S Int) (Prop (Array Int Bool)) (True_6u Int) 
(VV_F34 Int) (cmp (Array Int Int)) (i_an5 Int) 
(n_an4 Int)) 
 (=> (and (k_65 EQ_6U False_68 GT_6W LT_6S True_6u i_an5 n_an4) (and (k_62 EQ_6U False_68 GT_6W LT_6S True_6u n_an4) (and (= (select cmp EQ_6U) EQ_6U) (and (not (select Prop False_68)) (and (= (select cmp GT_6W) GT_6W) (and (= (select cmp LT_6S) LT_6S) (and (select Prop True_6u) (and (k_65 EQ_6U False_68 GT_6W LT_6S True_6u VV_F34 n_an4) (and (= VV_F34 i_an5) true))))))))) (k_81 EQ_6U False_68 GT_6W LT_6S True_6u VV_F34 i_an5 n_an4)))
)


; cid = 33
(assert (forall ((EQ_6U Int) (False_68 Int) (GT_6W Int) 
(LT_6S Int) (Prop (Array Int Bool)) (True_6u Int) (VV_F33 Int) 
(cmp (Array Int Int)) (i_an5 Int) (j Int) 
(n_an4 Int)) 
 (=> (and (k_65 EQ_6U False_68 GT_6W LT_6S True_6u i_an5 n_an4) (and (k_81 EQ_6U False_68 GT_6W LT_6S True_6u j i_an5 n_an4) (and (k_62 EQ_6U False_68 GT_6W LT_6S True_6u n_an4) (and (= (select cmp EQ_6U) EQ_6U) (and (not (select Prop False_68)) (and (= (select cmp GT_6W) GT_6W) (and (= (select cmp LT_6S) LT_6S) (and (select Prop True_6u) (and (k_71 EQ_6U False_68 GT_6W LT_6S True_6u VV_F33 i_an5 j n_an4) true))))))))) (k_83 EQ_6U False_68 GT_6W LT_6S True_6u VV_F33 i_an5 j n_an4)))
)


; cid = 33
(assert (forall ((EQ_6U Int) (False_68 Int) (GT_6W Int) 
(LT_6S Int) (Prop (Array Int Bool)) (True_6u Int) (VV_F33 Int) 
(cmp (Array Int Int)) (i_an5 Int) (j Int) 
(n_an4 Int)) 
 (=> (and (k_65 EQ_6U False_68 GT_6W LT_6S True_6u i_an5 n_an4) (and (k_81 EQ_6U False_68 GT_6W LT_6S True_6u j i_an5 n_an4) (and (k_62 EQ_6U False_68 GT_6W LT_6S True_6u n_an4) (and (= (select cmp EQ_6U) EQ_6U) (and (not (select Prop False_68)) (and (= (select cmp GT_6W) GT_6W) (and (= (select cmp LT_6S) LT_6S) (and (select Prop True_6u) (and (k_71 EQ_6U False_68 GT_6W LT_6S True_6u VV_F33 i_an5 j n_an4) true))))))))) (k_79 EQ_6U False_68 GT_6W LT_6S True_6u VV_F33 i_an5 n_an4)))
)


; cid = 32
(assert (forall ((EQ_6U Int) (False_68 Int) (GT_6W Int) 
(LT_6S Int) (Prop (Array Int Bool)) (True_6u Int) (VV_F32 Int) 
(cmp (Array Int Int)) (i_an5 Int) 
(n_an4 Int)) 
 (=> (and (k_65 EQ_6U False_68 GT_6W LT_6S True_6u i_an5 n_an4) (and (k_62 EQ_6U False_68 GT_6W LT_6S True_6u n_an4) (and (= (select cmp EQ_6U) EQ_6U) (and (not (select Prop False_68)) (and (= (select cmp GT_6W) GT_6W) (and (= (select cmp LT_6S) LT_6S) (and (select Prop True_6u) (and (k_81 EQ_6U False_68 GT_6W LT_6S True_6u VV_F32 i_an5 n_an4) true)))))))) (k_69 EQ_6U False_68 GT_6W LT_6S True_6u VV_F32 i_an5 n_an4)))
)


; cid = 29
(assert (forall ((EQ_6U Int) (False_68 Int) (GT_6W Int) 
(LT_6S Int) (Prop (Array Int Bool)) (True_6u Int) (VV_F29 Int) (c_an7 Int) 
(cmp (Array Int Int)) (i_an5 Int) (lq_anf__dnl Int) (lq_anf__dnm Int) 
(lq_anf__dnn Int) (lq_anf__dno Int) (lq_anf__dnp Int) (lq_anf__dnq Int) 
(lq_anf__dnr Int) 
(n_an4 Int)) 
 (=> (and (k_79 EQ_6U False_68 GT_6W LT_6S True_6u c_an7 i_an5 n_an4) (and (k_83 EQ_6U False_68 GT_6W LT_6S True_6u c_an7 i_an5 i_an5 n_an4) (and (k_65 EQ_6U False_68 GT_6W LT_6S True_6u i_an5 n_an4) (and (k_62 EQ_6U False_68 GT_6W LT_6S True_6u n_an4) (and (= (select cmp EQ_6U) EQ_6U) (and (not (select Prop False_68)) (and (= (select cmp GT_6W) GT_6W) (and (= (select cmp LT_6S) LT_6S) (and (select Prop True_6u) (and (= lq_anf__dnl 0) (and (= (select Prop lq_anf__dnm) (= c_an7 lq_anf__dnl)) (and (= (select Prop lq_anf__dnn) (= c_an7 lq_anf__dnl)) (and (= lq_anf__dnn lq_anf__dnm) (and (not (select Prop lq_anf__dnn)) (and (not (select Prop lq_anf__dnn)) (and (= lq_anf__dno 1) (and (= lq_anf__dnp (+ i_an5 lq_anf__dno)) (and (= lq_anf__dnq 32) (and (= lq_anf__dnr (+ c_an7 lq_anf__dnq)) (and (k_65 EQ_6U False_68 GT_6W LT_6S True_6u VV_F29 n_an4) (and (= VV_F29 i_an5) true))))))))))))))))))))) (k_100 EQ_6U False_68 GT_6W LT_6S True_6u VV_F29 c_an7 i_an5 lq_anf__dnl lq_anf__dnm lq_anf__dnn lq_anf__dno lq_anf__dnp lq_anf__dnq lq_anf__dnr n_an4)))
)


; cid = 28
(assert (forall ((EQ_6U Int) (False_68 Int) (GT_6W Int) 
(LT_6S Int) (Prop (Array Int Bool)) (True_6u Int) (VV_F28 Int) (c_an7 Int) 
(cmp (Array Int Int)) (i_an5 Int) (lq_anf__dnl Int) (lq_anf__dnm Int) 
(lq_anf__dnn Int) (lq_anf__dno Int) (lq_anf__dnp Int) (lq_anf__dnq Int) 
(lq_anf__dnr Int) 
(n_an4 Int)) 
 (=> (and (k_79 EQ_6U False_68 GT_6W LT_6S True_6u c_an7 i_an5 n_an4) (and (k_83 EQ_6U False_68 GT_6W LT_6S True_6u c_an7 i_an5 i_an5 n_an4) (and (k_65 EQ_6U False_68 GT_6W LT_6S True_6u i_an5 n_an4) (and (k_62 EQ_6U False_68 GT_6W LT_6S True_6u n_an4) (and (= (select cmp EQ_6U) EQ_6U) (and (not (select Prop False_68)) (and (= (select cmp GT_6W) GT_6W) (and (= (select cmp LT_6S) LT_6S) (and (select Prop True_6u) (and (= lq_anf__dnl 0) (and (= (select Prop lq_anf__dnm) (= c_an7 lq_anf__dnl)) (and (= (select Prop lq_anf__dnn) (= c_an7 lq_anf__dnl)) (and (= lq_anf__dnn lq_anf__dnm) (and (not (select Prop lq_anf__dnn)) (and (not (select Prop lq_anf__dnn)) (and (= lq_anf__dno 1) (and (= lq_anf__dnp (+ i_an5 lq_anf__dno)) (and (= lq_anf__dnq 32) (and (= lq_anf__dnr (+ c_an7 lq_anf__dnq)) (and (= VV_F28 (+ c_an7 lq_anf__dnq)) (and (= VV_F28 lq_anf__dnr) true))))))))))))))))))))) (k_102 EQ_6U False_68 GT_6W LT_6S True_6u VV_F28 c_an7 i_an5 lq_anf__dnl lq_anf__dnm lq_anf__dnn lq_anf__dno lq_anf__dnp lq_anf__dnq lq_anf__dnr i_an5 n_an4)))
)


; cid = 28
(assert (forall ((EQ_6U Int) (False_68 Int) (GT_6W Int) 
(LT_6S Int) (Prop (Array Int Bool)) (True_6u Int) (VV_F28 Int) (c_an7 Int) 
(cmp (Array Int Int)) (i_an5 Int) (lq_anf__dnl Int) (lq_anf__dnm Int) 
(lq_anf__dnn Int) (lq_anf__dno Int) (lq_anf__dnp Int) (lq_anf__dnq Int) 
(lq_anf__dnr Int) 
(n_an4 Int)) 
 (=> (and (k_79 EQ_6U False_68 GT_6W LT_6S True_6u c_an7 i_an5 n_an4) (and (k_83 EQ_6U False_68 GT_6W LT_6S True_6u c_an7 i_an5 i_an5 n_an4) (and (k_65 EQ_6U False_68 GT_6W LT_6S True_6u i_an5 n_an4) (and (k_62 EQ_6U False_68 GT_6W LT_6S True_6u n_an4) (and (= (select cmp EQ_6U) EQ_6U) (and (not (select Prop False_68)) (and (= (select cmp GT_6W) GT_6W) (and (= (select cmp LT_6S) LT_6S) (and (select Prop True_6u) (and (= lq_anf__dnl 0) (and (= (select Prop lq_anf__dnm) (= c_an7 lq_anf__dnl)) (and (= (select Prop lq_anf__dnn) (= c_an7 lq_anf__dnl)) (and (= lq_anf__dnn lq_anf__dnm) (and (not (select Prop lq_anf__dnn)) (and (not (select Prop lq_anf__dnn)) (and (= lq_anf__dno 1) (and (= lq_anf__dnp (+ i_an5 lq_anf__dno)) (and (= lq_anf__dnq 32) (and (= lq_anf__dnr (+ c_an7 lq_anf__dnq)) (and (= VV_F28 (+ c_an7 lq_anf__dnq)) (and (= VV_F28 lq_anf__dnr) true))))))))))))))))))))) (k_98 EQ_6U False_68 GT_6W LT_6S True_6u VV_F28 c_an7 i_an5 lq_anf__dnl lq_anf__dnm lq_anf__dnn lq_anf__dno lq_anf__dnp lq_anf__dnq lq_anf__dnr n_an4)))
)


; cid = 27
(assert (forall ((EQ_6U Int) (False_68 Int) (GT_6W Int) 
(LT_6S Int) (Prop (Array Int Bool)) (True_6u Int) (VV_F27 Int) (c_an7 Int) 
(cmp (Array Int Int)) (i_an5 Int) (j Int) (lq_anf__dnl Int) 
(lq_anf__dnm Int) (lq_anf__dnn Int) (lq_anf__dno Int) (lq_anf__dnp Int) 
(lq_anf__dnq Int) (lq_anf__dnr Int) 
(n_an4 Int)) 
 (=> (and (k_79 EQ_6U False_68 GT_6W LT_6S True_6u c_an7 i_an5 n_an4) (and (k_83 EQ_6U False_68 GT_6W LT_6S True_6u c_an7 i_an5 i_an5 n_an4) (and (k_65 EQ_6U False_68 GT_6W LT_6S True_6u i_an5 n_an4) (and (k_100 EQ_6U False_68 GT_6W LT_6S True_6u j c_an7 i_an5 lq_anf__dnl lq_anf__dnm lq_anf__dnn lq_anf__dno lq_anf__dnp lq_anf__dnq lq_anf__dnr n_an4) (and (k_62 EQ_6U False_68 GT_6W LT_6S True_6u n_an4) (and (= (select cmp EQ_6U) EQ_6U) (and (not (select Prop False_68)) (and (= (select cmp GT_6W) GT_6W) (and (= (select cmp LT_6S) LT_6S) (and (select Prop True_6u) (and (not (= j i_an5)) (and (= lq_anf__dnl 0) (and (= (select Prop lq_anf__dnm) (= c_an7 lq_anf__dnl)) (and (= (select Prop lq_anf__dnn) (= c_an7 lq_anf__dnl)) (and (= lq_anf__dnn lq_anf__dnm) (and (not (select Prop lq_anf__dnn)) (and (not (select Prop lq_anf__dnn)) (and (= lq_anf__dno 1) (and (= lq_anf__dnp (+ i_an5 lq_anf__dno)) (and (= lq_anf__dnq 32) (and (= lq_anf__dnr (+ c_an7 lq_anf__dnq)) (and (k_71 EQ_6U False_68 GT_6W LT_6S True_6u VV_F27 i_an5 j n_an4) true)))))))))))))))))))))) (k_102 EQ_6U False_68 GT_6W LT_6S True_6u VV_F27 c_an7 i_an5 lq_anf__dnl lq_anf__dnm lq_anf__dnn lq_anf__dno lq_anf__dnp lq_anf__dnq lq_anf__dnr j n_an4)))
)


; cid = 27
(assert (forall ((EQ_6U Int) (False_68 Int) (GT_6W Int) 
(LT_6S Int) (Prop (Array Int Bool)) (True_6u Int) (VV_F27 Int) (c_an7 Int) 
(cmp (Array Int Int)) (i_an5 Int) (j Int) (lq_anf__dnl Int) 
(lq_anf__dnm Int) (lq_anf__dnn Int) (lq_anf__dno Int) (lq_anf__dnp Int) 
(lq_anf__dnq Int) (lq_anf__dnr Int) 
(n_an4 Int)) 
 (=> (and (k_79 EQ_6U False_68 GT_6W LT_6S True_6u c_an7 i_an5 n_an4) (and (k_83 EQ_6U False_68 GT_6W LT_6S True_6u c_an7 i_an5 i_an5 n_an4) (and (k_65 EQ_6U False_68 GT_6W LT_6S True_6u i_an5 n_an4) (and (k_100 EQ_6U False_68 GT_6W LT_6S True_6u j c_an7 i_an5 lq_anf__dnl lq_anf__dnm lq_anf__dnn lq_anf__dno lq_anf__dnp lq_anf__dnq lq_anf__dnr n_an4) (and (k_62 EQ_6U False_68 GT_6W LT_6S True_6u n_an4) (and (= (select cmp EQ_6U) EQ_6U) (and (not (select Prop False_68)) (and (= (select cmp GT_6W) GT_6W) (and (= (select cmp LT_6S) LT_6S) (and (select Prop True_6u) (and (not (= j i_an5)) (and (= lq_anf__dnl 0) (and (= (select Prop lq_anf__dnm) (= c_an7 lq_anf__dnl)) (and (= (select Prop lq_anf__dnn) (= c_an7 lq_anf__dnl)) (and (= lq_anf__dnn lq_anf__dnm) (and (not (select Prop lq_anf__dnn)) (and (not (select Prop lq_anf__dnn)) (and (= lq_anf__dno 1) (and (= lq_anf__dnp (+ i_an5 lq_anf__dno)) (and (= lq_anf__dnq 32) (and (= lq_anf__dnr (+ c_an7 lq_anf__dnq)) (and (k_71 EQ_6U False_68 GT_6W LT_6S True_6u VV_F27 i_an5 j n_an4) true)))))))))))))))))))))) (k_98 EQ_6U False_68 GT_6W LT_6S True_6u VV_F27 c_an7 i_an5 lq_anf__dnl lq_anf__dnm lq_anf__dnn lq_anf__dno lq_anf__dnp lq_anf__dnq lq_anf__dnr n_an4)))
)


; cid = 26
(assert (forall ((EQ_6U Int) (False_68 Int) (GT_6W Int) 
(LT_6S Int) (Prop (Array Int Bool)) (True_6u Int) (VV_F26 Int) (c_an7 Int) 
(cmp (Array Int Int)) (i_an5 Int) (lq_anf__dnl Int) (lq_anf__dnm Int) 
(lq_anf__dnn Int) (lq_anf__dno Int) (lq_anf__dnp Int) (lq_anf__dnq Int) 
(lq_anf__dnr Int) 
(n_an4 Int)) 
 (=> (and (k_79 EQ_6U False_68 GT_6W LT_6S True_6u c_an7 i_an5 n_an4) (and (k_83 EQ_6U False_68 GT_6W LT_6S True_6u c_an7 i_an5 i_an5 n_an4) (and (k_65 EQ_6U False_68 GT_6W LT_6S True_6u i_an5 n_an4) (and (k_62 EQ_6U False_68 GT_6W LT_6S True_6u n_an4) (and (= (select cmp EQ_6U) EQ_6U) (and (not (select Prop False_68)) (and (= (select cmp GT_6W) GT_6W) (and (= (select cmp LT_6S) LT_6S) (and (select Prop True_6u) (and (= lq_anf__dnl 0) (and (= (select Prop lq_anf__dnm) (= c_an7 lq_anf__dnl)) (and (= (select Prop lq_anf__dnn) (= c_an7 lq_anf__dnl)) (and (= lq_anf__dnn lq_anf__dnm) (and (not (select Prop lq_anf__dnn)) (and (not (select Prop lq_anf__dnn)) (and (= lq_anf__dno 1) (and (= lq_anf__dnp (+ i_an5 lq_anf__dno)) (and (= lq_anf__dnq 32) (and (= lq_anf__dnr (+ c_an7 lq_anf__dnq)) (and (not (= VV_F26 i_an5)) (and (k_100 EQ_6U False_68 GT_6W LT_6S True_6u VV_F26 c_an7 i_an5 lq_anf__dnl lq_anf__dnm lq_anf__dnn lq_anf__dno lq_anf__dnp lq_anf__dnq lq_anf__dnr n_an4) true))))))))))))))))))))) (k_69 EQ_6U False_68 GT_6W LT_6S True_6u VV_F26 i_an5 n_an4)))
)


; cid = 25
(assert (forall ((EQ_6U Int) (False_68 Int) (GT_6W Int) 
(LT_6S Int) (Prop (Array Int Bool)) (True_6u Int) (VV_F25 Int) (c_an7 Int) 
(cmp (Array Int Int)) (i_an5 Int) (lq_anf__dnl Int) (lq_anf__dnm Int) 
(lq_anf__dnn Int) (lq_anf__dno Int) (lq_anf__dnp Int) (lq_anf__dnq Int) 
(lq_anf__dnr Int) 
(n_an4 Int)) 
 (=> (and (k_79 EQ_6U False_68 GT_6W LT_6S True_6u c_an7 i_an5 n_an4) (and (k_83 EQ_6U False_68 GT_6W LT_6S True_6u c_an7 i_an5 i_an5 n_an4) (and (k_65 EQ_6U False_68 GT_6W LT_6S True_6u i_an5 n_an4) (and (k_62 EQ_6U False_68 GT_6W LT_6S True_6u n_an4) (and (= (select cmp EQ_6U) EQ_6U) (and (not (select Prop False_68)) (and (= (select cmp GT_6W) GT_6W) (and (= (select cmp LT_6S) LT_6S) (and (select Prop True_6u) (and (= lq_anf__dnl 0) (and (= (select Prop lq_anf__dnm) (= c_an7 lq_anf__dnl)) (and (= (select Prop lq_anf__dnn) (= c_an7 lq_anf__dnl)) (and (= lq_anf__dnn lq_anf__dnm) (and (not (select Prop lq_anf__dnn)) (and (not (select Prop lq_anf__dnn)) (and (= lq_anf__dno 1) (and (= lq_anf__dnp (+ i_an5 lq_anf__dno)) (and (= lq_anf__dnq 32) (and (= lq_anf__dnr (+ c_an7 lq_anf__dnq)) (and (k_62 EQ_6U False_68 GT_6W LT_6S True_6u VV_F25) (and (= VV_F25 n_an4) true))))))))))))))))))))) (k_47 EQ_6U False_68 GT_6W LT_6S True_6u VV_F25)))
)


; cid = 24
(assert (forall ((EQ_6U Int) (False_68 Int) (GT_6W Int) 
(LT_6S Int) (Prop (Array Int Bool)) (True_6u Int) (VV_F24 Int) (c_an7 Int) 
(cmp (Array Int Int)) (i_an5 Int) (lq_anf__dnl Int) (lq_anf__dnm Int) 
(lq_anf__dnn Int) (lq_anf__dno Int) (lq_anf__dnp Int) (lq_anf__dnq Int) 
(lq_anf__dnr Int) 
(n_an4 Int)) 
 (=> (and (k_79 EQ_6U False_68 GT_6W LT_6S True_6u c_an7 i_an5 n_an4) (and (k_83 EQ_6U False_68 GT_6W LT_6S True_6u c_an7 i_an5 i_an5 n_an4) (and (k_65 EQ_6U False_68 GT_6W LT_6S True_6u i_an5 n_an4) (and (k_62 EQ_6U False_68 GT_6W LT_6S True_6u n_an4) (and (= (select cmp EQ_6U) EQ_6U) (and (not (select Prop False_68)) (and (= (select cmp GT_6W) GT_6W) (and (= (select cmp LT_6S) LT_6S) (and (select Prop True_6u) (and (= lq_anf__dnl 0) (and (= (select Prop lq_anf__dnm) (= c_an7 lq_anf__dnl)) (and (= (select Prop lq_anf__dnn) (= c_an7 lq_anf__dnl)) (and (= lq_anf__dnn lq_anf__dnm) (and (not (select Prop lq_anf__dnn)) (and (not (select Prop lq_anf__dnn)) (and (= lq_anf__dno 1) (and (= lq_anf__dnp (+ i_an5 lq_anf__dno)) (and (= lq_anf__dnq 32) (and (= lq_anf__dnr (+ c_an7 lq_anf__dnq)) (and (= VV_F24 (+ i_an5 lq_anf__dno)) (and (= VV_F24 lq_anf__dnp) true))))))))))))))))))))) (k_49 EQ_6U False_68 GT_6W LT_6S True_6u VV_F24 n_an4)))
)


; cid = 23
(assert (forall ((EQ_6U Int) (False_68 Int) (GT_6W Int) 
(LT_6S Int) (Prop (Array Int Bool)) (True_6u Int) (VV_F23 Int) (c_an7 Int) 
(cmp (Array Int Int)) (i_an5 Int) (lq_anf__dnl Int) (lq_anf__dnm Int) 
(lq_anf__dnn Int) (lq_anf__dno Int) (lq_anf__dnp Int) (lq_anf__dnq Int) 
(lq_anf__dnr Int) (lq_tmp_x50 Int) 
(n_an4 Int)) 
 (=> (and (k_79 EQ_6U False_68 GT_6W LT_6S True_6u c_an7 i_an5 n_an4) (and (k_83 EQ_6U False_68 GT_6W LT_6S True_6u c_an7 i_an5 i_an5 n_an4) (and (k_65 EQ_6U False_68 GT_6W LT_6S True_6u i_an5 n_an4) (and (k_52 EQ_6U False_68 GT_6W LT_6S True_6u lq_tmp_x50 lq_anf__dnp n_an4) (and (k_62 EQ_6U False_68 GT_6W LT_6S True_6u n_an4) (and (= (select cmp EQ_6U) EQ_6U) (and (not (select Prop False_68)) (and (= (select cmp GT_6W) GT_6W) (and (= (select cmp LT_6S) LT_6S) (and (select Prop True_6u) (and (= lq_anf__dnl 0) (and (= (select Prop lq_anf__dnm) (= c_an7 lq_anf__dnl)) (and (= (select Prop lq_anf__dnn) (= c_an7 lq_anf__dnl)) (and (= lq_anf__dnn lq_anf__dnm) (and (not (select Prop lq_anf__dnn)) (and (not (select Prop lq_anf__dnn)) (and (= lq_anf__dno 1) (and (= lq_anf__dnp (+ i_an5 lq_anf__dno)) (and (= lq_anf__dnq 32) (and (= lq_anf__dnr (+ c_an7 lq_anf__dnq)) (and (k_98 EQ_6U False_68 GT_6W LT_6S True_6u VV_F23 c_an7 i_an5 lq_anf__dnl lq_anf__dnm lq_anf__dnn lq_anf__dno lq_anf__dnp lq_anf__dnq lq_anf__dnr n_an4) (and (k_102 EQ_6U False_68 GT_6W LT_6S True_6u VV_F23 c_an7 i_an5 lq_anf__dnl lq_anf__dnm lq_anf__dnn lq_anf__dno lq_anf__dnp lq_anf__dnq lq_anf__dnr lq_tmp_x50 n_an4) true)))))))))))))))))))))) (k_54 EQ_6U False_68 GT_6W LT_6S True_6u VV_F23 lq_anf__dnp lq_tmp_x50 n_an4)))
)


; cid = 22
(assert (forall ((EQ_6U Int) (False_68 Int) (GT_6W Int) 
(LT_6S Int) (Prop (Array Int Bool)) (True_6u Int) (VV_F22 Int) (c_an7 Int) 
(cmp (Array Int Int)) (i_an5 Int) (lq_anf__dnl Int) (lq_anf__dnm Int) 
(lq_anf__dnn Int) (lq_anf__dno Int) (lq_anf__dnp Int) (lq_anf__dnq Int) 
(lq_anf__dnr Int) 
(n_an4 Int)) 
 (=> (and (k_79 EQ_6U False_68 GT_6W LT_6S True_6u c_an7 i_an5 n_an4) (and (k_83 EQ_6U False_68 GT_6W LT_6S True_6u c_an7 i_an5 i_an5 n_an4) (and (k_65 EQ_6U False_68 GT_6W LT_6S True_6u i_an5 n_an4) (and (k_62 EQ_6U False_68 GT_6W LT_6S True_6u n_an4) (and (= (select cmp EQ_6U) EQ_6U) (and (not (select Prop False_68)) (and (= (select cmp GT_6W) GT_6W) (and (= (select cmp LT_6S) LT_6S) (and (select Prop True_6u) (and (= lq_anf__dnl 0) (and (= (select Prop lq_anf__dnm) (= c_an7 lq_anf__dnl)) (and (= (select Prop lq_anf__dnn) (= c_an7 lq_anf__dnl)) (and (= lq_anf__dnn lq_anf__dnm) (and (not (select Prop lq_anf__dnn)) (and (not (select Prop lq_anf__dnn)) (and (= lq_anf__dno 1) (and (= lq_anf__dnp (+ i_an5 lq_anf__dno)) (and (= lq_anf__dnq 32) (and (= lq_anf__dnr (+ c_an7 lq_anf__dnq)) (and (k_52 EQ_6U False_68 GT_6W LT_6S True_6u VV_F22 lq_anf__dnp n_an4) true)))))))))))))))))))) (k_100 EQ_6U False_68 GT_6W LT_6S True_6u VV_F22 c_an7 i_an5 lq_anf__dnl lq_anf__dnm lq_anf__dnn lq_anf__dno lq_anf__dnp lq_anf__dnq lq_anf__dnr n_an4)))
)


; cid = 20
(assert (forall ((EQ_6U Int) (False_68 Int) (GT_6W Int) 
(LT_6S Int) (Prop (Array Int Bool)) (True_6u Int) (VV_F20 Int) (c_an7 Int) 
(cmp (Array Int Int)) (i_an5 Int) (lq_anf__dnl Int) (lq_anf__dnm Int) 
(lq_anf__dnn Int) (lq_anf__dno Int) (lq_anf__dnp Int) (lq_anf__dnq Int) 
(lq_anf__dnr Int) 
(n_an4 Int)) 
 (=> (and (k_79 EQ_6U False_68 GT_6W LT_6S True_6u c_an7 i_an5 n_an4) (and (k_83 EQ_6U False_68 GT_6W LT_6S True_6u c_an7 i_an5 i_an5 n_an4) (and (k_65 EQ_6U False_68 GT_6W LT_6S True_6u i_an5 n_an4) (and (k_62 EQ_6U False_68 GT_6W LT_6S True_6u n_an4) (and (= (select cmp EQ_6U) EQ_6U) (and (not (select Prop False_68)) (and (= (select cmp GT_6W) GT_6W) (and (= (select cmp LT_6S) LT_6S) (and (select Prop True_6u) (and (= lq_anf__dnl 0) (and (= (select Prop lq_anf__dnm) (= c_an7 lq_anf__dnl)) (and (= (select Prop lq_anf__dnn) (= c_an7 lq_anf__dnl)) (and (= lq_anf__dnn lq_anf__dnm) (and (not (select Prop lq_anf__dnn)) (and (not (select Prop lq_anf__dnn)) (and (= lq_anf__dno 1) (and (= lq_anf__dnp (+ i_an5 lq_anf__dno)) (and (= lq_anf__dnq 32) (and (= lq_anf__dnr (+ c_an7 lq_anf__dnq)) (and (k_75 EQ_6U False_68 GT_6W LT_6S True_6u VV_F20 i_an5 n_an4) true)))))))))))))))))))) (k_57 EQ_6U False_68 GT_6W LT_6S True_6u VV_F20 lq_anf__dnp n_an4)))
)


; cid = 18
(assert (forall ((EQ_6U Int) (False_68 Int) (GT_6W Int) 
(LT_6S Int) (Prop (Array Int Bool)) (True_6u Int) (VV_F18 Int) (c_an7 Int) 
(cmp (Array Int Int)) (i_an5 Int) (lq_anf__dnl Int) (lq_anf__dnm Int) 
(lq_anf__dnn Int) 
(n_an4 Int)) 
 (=> (and (k_79 EQ_6U False_68 GT_6W LT_6S True_6u c_an7 i_an5 n_an4) (and (k_83 EQ_6U False_68 GT_6W LT_6S True_6u c_an7 i_an5 i_an5 n_an4) (and (k_65 EQ_6U False_68 GT_6W LT_6S True_6u i_an5 n_an4) (and (k_62 EQ_6U False_68 GT_6W LT_6S True_6u n_an4) (and (= (select cmp EQ_6U) EQ_6U) (and (not (select Prop False_68)) (and (= (select cmp GT_6W) GT_6W) (and (= (select cmp LT_6S) LT_6S) (and (select Prop True_6u) (and (= lq_anf__dnl 0) (and (= (select Prop lq_anf__dnm) (= c_an7 lq_anf__dnl)) (and (= (select Prop lq_anf__dnn) (= c_an7 lq_anf__dnl)) (and (= lq_anf__dnn lq_anf__dnm) (and (select Prop lq_anf__dnn) (and (select Prop lq_anf__dnn) (and (k_75 EQ_6U False_68 GT_6W LT_6S True_6u VV_F18 i_an5 n_an4) true)))))))))))))))) (k_69 EQ_6U False_68 GT_6W LT_6S True_6u VV_F18 i_an5 n_an4)))
)


; cid = 16
(assert (forall ((EQ_6U Int) (False_68 Int) (GT_6W Int) 
(LT_6S Int) (Prop (Array Int Bool)) (True_6u Int) (VV_F16 Int) 
(cmp (Array Int Int)) (i_an5 Int) 
(n_an4 Int)) 
 (=> (and (k_49 EQ_6U False_68 GT_6W LT_6S True_6u i_an5 n_an4) (and (k_47 EQ_6U False_68 GT_6W LT_6S True_6u n_an4) (and (= (select cmp EQ_6U) EQ_6U) (and (not (select Prop False_68)) (and (= (select cmp GT_6W) GT_6W) (and (= (select cmp LT_6S) LT_6S) (and (select Prop True_6u) (and (k_57 EQ_6U False_68 GT_6W LT_6S True_6u VV_F16 i_an5 n_an4) true)))))))) (k_75 EQ_6U False_68 GT_6W LT_6S True_6u VV_F16 i_an5 n_an4)))
)


; cid = 15
(assert (forall ((EQ_6U Int) (False_68 Int) (GT_6W Int) 
(LT_6S Int) (Prop (Array Int Bool)) (True_6u Int) (VV_F15 Int) 
(cmp (Array Int Int)) (i_an5 Int) (lq_tmp_x67 Int) 
(n_an4 Int)) 
 (=> (and (k_49 EQ_6U False_68 GT_6W LT_6S True_6u i_an5 n_an4) (and (k_69 EQ_6U False_68 GT_6W LT_6S True_6u lq_tmp_x67 i_an5 n_an4) (and (k_47 EQ_6U False_68 GT_6W LT_6S True_6u n_an4) (and (= (select cmp EQ_6U) EQ_6U) (and (not (select Prop False_68)) (and (= (select cmp GT_6W) GT_6W) (and (= (select cmp LT_6S) LT_6S) (and (select Prop True_6u) (and (k_54 EQ_6U False_68 GT_6W LT_6S True_6u VV_F15 i_an5 lq_tmp_x67 n_an4) true))))))))) (k_71 EQ_6U False_68 GT_6W LT_6S True_6u VV_F15 i_an5 lq_tmp_x67 n_an4)))
)


; cid = 14
(assert (forall ((EQ_6U Int) (False_68 Int) (GT_6W Int) 
(LT_6S Int) (Prop (Array Int Bool)) (True_6u Int) (VV_F14 Int) 
(cmp (Array Int Int)) (i_an5 Int) 
(n_an4 Int)) 
 (=> (and (k_49 EQ_6U False_68 GT_6W LT_6S True_6u i_an5 n_an4) (and (k_47 EQ_6U False_68 GT_6W LT_6S True_6u n_an4) (and (= (select cmp EQ_6U) EQ_6U) (and (not (select Prop False_68)) (and (= (select cmp GT_6W) GT_6W) (and (= (select cmp LT_6S) LT_6S) (and (select Prop True_6u) (and (k_69 EQ_6U False_68 GT_6W LT_6S True_6u VV_F14 i_an5 n_an4) true)))))))) (k_52 EQ_6U False_68 GT_6W LT_6S True_6u VV_F14 i_an5 n_an4)))
)


; cid = 13
(assert (forall ((EQ_6U Int) (False_68 Int) (GT_6W Int) 
(LT_6S Int) (Prop (Array Int Bool)) (True_6u Int) (VV_F13 Int) 
(cmp (Array Int Int)) 
(n_an4 Int)) 
 (=> (and (k_47 EQ_6U False_68 GT_6W LT_6S True_6u n_an4) (and (= (select cmp EQ_6U) EQ_6U) (and (not (select Prop False_68)) (and (= (select cmp GT_6W) GT_6W) (and (= (select cmp LT_6S) LT_6S) (and (select Prop True_6u) (and (k_49 EQ_6U False_68 GT_6W LT_6S True_6u VV_F13 n_an4) true))))))) (k_65 EQ_6U False_68 GT_6W LT_6S True_6u VV_F13 n_an4)))
)


; cid = 12
(assert (forall ((EQ_6U Int) (False_68 Int) (GT_6W Int) 
(LT_6S Int) (Prop (Array Int Bool)) (True_6u Int) (VV_F12 Int) 
(cmp (Array Int Int))) 
 (=> (and (= (select cmp EQ_6U) EQ_6U) (and (not (select Prop False_68)) (and (= (select cmp GT_6W) GT_6W) (and (= (select cmp LT_6S) LT_6S) (and (select Prop True_6u) (and (k_47 EQ_6U False_68 GT_6W LT_6S True_6u VV_F12) true)))))) (k_62 EQ_6U False_68 GT_6W LT_6S True_6u VV_F12)))
)


; cid = 11
(assert (forall ((EQ_6U Int) (False_68 Int) (GT_6W Int) 
(LT_6S Int) (Prop (Array Int Bool)) (True_6u Int) (VV_F11 Int) 
(cmp (Array Int Int)) (lq_anf__dnt Int) 
(n_an8 Int)) 
 (=> (and (k_108 EQ_6U False_68 GT_6W LT_6S True_6u n_an8) (and (= (select cmp EQ_6U) EQ_6U) (and (not (select Prop False_68)) (and (= (select cmp GT_6W) GT_6W) (and (= (select cmp LT_6S) LT_6S) (and (select Prop True_6u) (and (= lq_anf__dnt 0) (and (k_108 EQ_6U False_68 GT_6W LT_6S True_6u VV_F11) (and (= VV_F11 n_an8) true))))))))) (k_47 EQ_6U False_68 GT_6W LT_6S True_6u VV_F11)))
)


; cid = 10
(assert (forall ((EQ_6U Int) (False_68 Int) (GT_6W Int) 
(LT_6S Int) (Prop (Array Int Bool)) (True_6u Int) (VV_F10 Int) 
(cmp (Array Int Int)) (lq_anf__dnt Int) 
(n_an8 Int)) 
 (=> (and (k_108 EQ_6U False_68 GT_6W LT_6S True_6u n_an8) (and (= (select cmp EQ_6U) EQ_6U) (and (not (select Prop False_68)) (and (= (select cmp GT_6W) GT_6W) (and (= (select cmp LT_6S) LT_6S) (and (select Prop True_6u) (and (= lq_anf__dnt 0) (and (= VV_F10 0) (and (= VV_F10 lq_anf__dnt) true))))))))) (k_49 EQ_6U False_68 GT_6W LT_6S True_6u VV_F10 n_an8)))
)


; cid = 9
(assert (forall ((EQ_6U Int) (False_68 Int) (GT_6W Int) 
(LT_6S Int) (Prop (Array Int Bool)) (True_6u Int) (VV_F9 Int) 
(cmp (Array Int Int)) (lq_anf__dnt Int) (lq_tmp_x50 Int) 
(n_an8 Int)) 
 (=> (and (k_52 EQ_6U False_68 GT_6W LT_6S True_6u lq_tmp_x50 lq_anf__dnt n_an8) (and (k_108 EQ_6U False_68 GT_6W LT_6S True_6u n_an8) (and (= (select cmp EQ_6U) EQ_6U) (and (not (select Prop False_68)) (and (= (select cmp GT_6W) GT_6W) (and (= (select cmp LT_6S) LT_6S) (and (select Prop True_6u) (and (= lq_anf__dnt 0) (and (k_114 EQ_6U False_68 GT_6W LT_6S True_6u VV_F9 lq_tmp_x50 n_an8) true))))))))) (k_54 EQ_6U False_68 GT_6W LT_6S True_6u VV_F9 lq_anf__dnt lq_tmp_x50 n_an8)))
)


; cid = 8
(assert (forall ((EQ_6U Int) (False_68 Int) (GT_6W Int) 
(LT_6S Int) (Prop (Array Int Bool)) (True_6u Int) (VV_F8 Int) 
(cmp (Array Int Int)) (lq_anf__dnt Int) 
(n_an8 Int)) 
 (=> (and (k_108 EQ_6U False_68 GT_6W LT_6S True_6u n_an8) (and (= (select cmp EQ_6U) EQ_6U) (and (not (select Prop False_68)) (and (= (select cmp GT_6W) GT_6W) (and (= (select cmp LT_6S) LT_6S) (and (select Prop True_6u) (and (= lq_anf__dnt 0) (and (k_52 EQ_6U False_68 GT_6W LT_6S True_6u VV_F8 lq_anf__dnt n_an8) true)))))))) (k_112 EQ_6U False_68 GT_6W LT_6S True_6u VV_F8 n_an8)))
)


; cid = 6
(assert (forall ((EQ_6U Int) (False_68 Int) (GT_6W Int) 
(LT_6S Int) (Prop (Array Int Bool)) (True_6u Int) (VV_F6 Int) 
(cmp (Array Int Int)) (lq_anf__dnt Int) 
(n_an8 Int)) 
 (=> (and (k_108 EQ_6U False_68 GT_6W LT_6S True_6u n_an8) (and (= (select cmp EQ_6U) EQ_6U) (and (not (select Prop False_68)) (and (= (select cmp GT_6W) GT_6W) (and (= (select cmp LT_6S) LT_6S) (and (select Prop True_6u) (and (= lq_anf__dnt 0) (and (k_118 EQ_6U False_68 GT_6W LT_6S True_6u VV_F6 n_an8) true)))))))) (k_57 EQ_6U False_68 GT_6W LT_6S True_6u VV_F6 lq_anf__dnt n_an8)))
)


; cid = 4
(assert (forall ((EQ_6U Int) (False_68 Int) (GT_6W Int) 
(LT_6S Int) (Prop (Array Int Bool)) (True_6u Int) (VV_F4 Int) 
(cmp (Array Int Int)) 
(n Int)) 
 (=> (and (= (select cmp EQ_6U) EQ_6U) (and (not (select Prop False_68)) (and (= (select cmp GT_6W) GT_6W) (and (= (select cmp LT_6S) LT_6S) (and (select Prop True_6u) (and (> n 0) (and (< VV_F4 n) (and (<= 0 VV_F4) true)))))))) (k_118 EQ_6U False_68 GT_6W LT_6S True_6u VV_F4 n)))
)


; cid = 3
(assert (forall ((EQ_6U Int) (False_68 Int) (GT_6W Int) 
(LT_6S Int) (Prop (Array Int Bool)) (True_6u Int) (VV_F3 Int) 
(cmp (Array Int Int)) (lq_tmp_x110 Int) 
(n Int)) 
 (=> (and (k_112 EQ_6U False_68 GT_6W LT_6S True_6u lq_tmp_x110 n) (and (= (select cmp EQ_6U) EQ_6U) (and (not (select Prop False_68)) (and (= (select cmp GT_6W) GT_6W) (and (= (select cmp LT_6S) LT_6S) (and (select Prop True_6u) (and (> n 0) (and (=> (= lq_tmp_x110 (- n 1)) (= VV_F3 0)) true)))))))) (k_114 EQ_6U False_68 GT_6W LT_6S True_6u VV_F3 lq_tmp_x110 n)))
)


; cid = 2
(assert (forall ((EQ_6U Int) (False_68 Int) (GT_6W Int) 
(LT_6S Int) (Prop (Array Int Bool)) (True_6u Int) (VV_F2 Int) 
(cmp (Array Int Int)) 
(n Int)) 
 (=> (and (not (and (<= 0 VV_F2) (and (< VV_F2 n) true))) (and (= (select cmp EQ_6U) EQ_6U) (and (not (select Prop False_68)) (and (= (select cmp GT_6W) GT_6W) (and (= (select cmp LT_6S) LT_6S) (and (select Prop True_6u) (and (> n 0) (and (k_112 EQ_6U False_68 GT_6W LT_6S True_6u VV_F2 n) true)))))))) false))
)


; cid = 1
(assert (forall ((EQ_6U Int) (False_68 Int) (GT_6W Int) 
(LT_6S Int) (Prop (Array Int Bool)) (True_6u Int) (VV_F1 Int) 
(cmp (Array Int Int))) 
 (=> (and (= (select cmp EQ_6U) EQ_6U) (and (not (select Prop False_68)) (and (= (select cmp GT_6W) GT_6W) (and (= (select cmp LT_6S) LT_6S) (and (select Prop True_6u) (and (> VV_F1 0) true)))))) (k_108 EQ_6U False_68 GT_6W LT_6S True_6u VV_F1)))
)
